



































































































69 66 74 71 33 
59 46 22 8 10 
37 52 62 54 29 
24 56 21 67 75 
17 70 0 36 25 31 
47 27 14 38 49 
51 68 30 26 9 
19 50 58 65 39 
55 23 63 53 11 
1 16 43 44 12 
57 45 3 64 40 
2 76 5 73 4 6 
41 32 48 42 15 60 
13 28 61 34 35 
7 72 20 18 
